5  4
3  3  1  8  2  9  3  9  3  2  16  3  14  4  17  3  4  12  1  13   2  10
3  3  1  20  3  18  2  21  3  3  10  1  13  4  8  3  2  18  4  17  3  19
3  3  3  12  4  11  1  11  3  4  8  2  10  3  7  3  1  15  3  14  2  17 
2  3  4  14  1  16  3  16  3  2  18  3  16  1  16
2  3  3  10  2  9  4  11  3  1  15  4  16  3  14
